p cnf 50 2010
1 2 3 4 5 0 
-1 -2 0 
-1 -3 0 
-1 -4 0 
-1 -5 0 
-2 -3 0 
-2 -4 0 
-2 -5 0 
-3 -4 0 
-3 -5 0 
-4 -5 0 
6 7 8 9 10 0 
-6 -7 0 
-6 -8 0 
-6 -9 0 
-6 -10 0 
-7 -8 0 
-7 -9 0 
-7 -10 0 
-8 -9 0 
-8 -10 0 
-9 -10 0 
11 12 13 14 15 0 
-11 -12 0 
-11 -13 0 
-11 -14 0 
-11 -15 0 
-12 -13 0 
-12 -14 0 
-12 -15 0 
-13 -14 0 
-13 -15 0 
-14 -15 0 
16 17 18 19 20 0 
-16 -17 0 
-16 -18 0 
-16 -19 0 
-16 -20 0 
-17 -18 0 
-17 -19 0 
-17 -20 0 
-18 -19 0 
-18 -20 0 
-19 -20 0 
21 22 23 24 25 0 
-21 -22 0 
-21 -23 0 
-21 -24 0 
-21 -25 0 
-22 -23 0 
-22 -24 0 
-22 -25 0 
-23 -24 0 
-23 -25 0 
-24 -25 0 
26 27 28 29 30 0 
-26 -27 0 
-26 -28 0 
-26 -29 0 
-26 -30 0 
-27 -28 0 
-27 -29 0 
-27 -30 0 
-28 -29 0 
-28 -30 0 
-29 -30 0 
31 32 33 34 35 0 
-31 -32 0 
-31 -33 0 
-31 -34 0 
-31 -35 0 
-32 -33 0 
-32 -34 0 
-32 -35 0 
-33 -34 0 
-33 -35 0 
-34 -35 0 
36 37 38 39 40 0 
-36 -37 0 
-36 -38 0 
-36 -39 0 
-36 -40 0 
-37 -38 0 
-37 -39 0 
-37 -40 0 
-38 -39 0 
-38 -40 0 
-39 -40 0 
41 42 43 44 45 0 
-41 -42 0 
-41 -43 0 
-41 -44 0 
-41 -45 0 
-42 -43 0 
-42 -44 0 
-42 -45 0 
-43 -44 0 
-43 -45 0 
-44 -45 0 
46 47 48 49 50 0 
-46 -47 0 
-46 -48 0 
-46 -49 0 
-46 -50 0 
-47 -48 0 
-47 -49 0 
-47 -50 0 
-48 -49 0 
-48 -50 0 
-49 -50 0 
-1 -6 -11 0 
-1 -6 -16 0 
-1 -6 -21 0 
-1 -6 -26 0 
-1 -6 -31 0 
-1 -6 -36 0 
-1 -6 -41 0 
-1 -6 -46 0 
-1 -11 -6 0 
-1 -11 -16 0 
-1 -11 -21 0 
-1 -11 -26 0 
-1 -11 -31 0 
-1 -11 -36 0 
-1 -11 -41 0 
-1 -11 -46 0 
-1 -16 -6 0 
-1 -16 -11 0 
-1 -16 -21 0 
-1 -16 -26 0 
-1 -16 -31 0 
-1 -16 -36 0 
-1 -16 -41 0 
-1 -16 -46 0 
-1 -21 -6 0 
-1 -21 -11 0 
-1 -21 -16 0 
-1 -21 -26 0 
-1 -21 -31 0 
-1 -21 -36 0 
-1 -21 -41 0 
-1 -21 -46 0 
-1 -26 -6 0 
-1 -26 -11 0 
-1 -26 -16 0 
-1 -26 -21 0 
-1 -26 -31 0 
-1 -26 -36 0 
-1 -26 -41 0 
-1 -26 -46 0 
-1 -31 -6 0 
-1 -31 -11 0 
-1 -31 -16 0 
-1 -31 -21 0 
-1 -31 -26 0 
-1 -31 -36 0 
-1 -31 -41 0 
-1 -31 -46 0 
-1 -36 -6 0 
-1 -36 -11 0 
-1 -36 -16 0 
-1 -36 -21 0 
-1 -36 -26 0 
-1 -36 -31 0 
-1 -36 -41 0 
-1 -36 -46 0 
-1 -41 -6 0 
-1 -41 -11 0 
-1 -41 -16 0 
-1 -41 -21 0 
-1 -41 -26 0 
-1 -41 -31 0 
-1 -41 -36 0 
-1 -41 -46 0 
-1 -46 -6 0 
-1 -46 -11 0 
-1 -46 -16 0 
-1 -46 -21 0 
-1 -46 -26 0 
-1 -46 -31 0 
-1 -46 -36 0 
-1 -46 -41 0 
-6 -11 -1 0 
-6 -11 -16 0 
-6 -11 -21 0 
-6 -11 -26 0 
-6 -11 -31 0 
-6 -11 -36 0 
-6 -11 -41 0 
-6 -11 -46 0 
-6 -16 -1 0 
-6 -16 -11 0 
-6 -16 -21 0 
-6 -16 -26 0 
-6 -16 -31 0 
-6 -16 -36 0 
-6 -16 -41 0 
-6 -16 -46 0 
-6 -21 -1 0 
-6 -21 -11 0 
-6 -21 -16 0 
-6 -21 -26 0 
-6 -21 -31 0 
-6 -21 -36 0 
-6 -21 -41 0 
-6 -21 -46 0 
-6 -26 -1 0 
-6 -26 -11 0 
-6 -26 -16 0 
-6 -26 -21 0 
-6 -26 -31 0 
-6 -26 -36 0 
-6 -26 -41 0 
-6 -26 -46 0 
-6 -31 -1 0 
-6 -31 -11 0 
-6 -31 -16 0 
-6 -31 -21 0 
-6 -31 -26 0 
-6 -31 -36 0 
-6 -31 -41 0 
-6 -31 -46 0 
-6 -36 -1 0 
-6 -36 -11 0 
-6 -36 -16 0 
-6 -36 -21 0 
-6 -36 -26 0 
-6 -36 -31 0 
-6 -36 -41 0 
-6 -36 -46 0 
-6 -41 -1 0 
-6 -41 -11 0 
-6 -41 -16 0 
-6 -41 -21 0 
-6 -41 -26 0 
-6 -41 -31 0 
-6 -41 -36 0 
-6 -41 -46 0 
-6 -46 -1 0 
-6 -46 -11 0 
-6 -46 -16 0 
-6 -46 -21 0 
-6 -46 -26 0 
-6 -46 -31 0 
-6 -46 -36 0 
-6 -46 -41 0 
-11 -16 -1 0 
-11 -16 -6 0 
-11 -16 -21 0 
-11 -16 -26 0 
-11 -16 -31 0 
-11 -16 -36 0 
-11 -16 -41 0 
-11 -16 -46 0 
-11 -21 -1 0 
-11 -21 -6 0 
-11 -21 -16 0 
-11 -21 -26 0 
-11 -21 -31 0 
-11 -21 -36 0 
-11 -21 -41 0 
-11 -21 -46 0 
-11 -26 -1 0 
-11 -26 -6 0 
-11 -26 -16 0 
-11 -26 -21 0 
-11 -26 -31 0 
-11 -26 -36 0 
-11 -26 -41 0 
-11 -26 -46 0 
-11 -31 -1 0 
-11 -31 -6 0 
-11 -31 -16 0 
-11 -31 -21 0 
-11 -31 -26 0 
-11 -31 -36 0 
-11 -31 -41 0 
-11 -31 -46 0 
-11 -36 -1 0 
-11 -36 -6 0 
-11 -36 -16 0 
-11 -36 -21 0 
-11 -36 -26 0 
-11 -36 -31 0 
-11 -36 -41 0 
-11 -36 -46 0 
-11 -41 -1 0 
-11 -41 -6 0 
-11 -41 -16 0 
-11 -41 -21 0 
-11 -41 -26 0 
-11 -41 -31 0 
-11 -41 -36 0 
-11 -41 -46 0 
-11 -46 -1 0 
-11 -46 -6 0 
-11 -46 -16 0 
-11 -46 -21 0 
-11 -46 -26 0 
-11 -46 -31 0 
-11 -46 -36 0 
-11 -46 -41 0 
-16 -21 -1 0 
-16 -21 -6 0 
-16 -21 -11 0 
-16 -21 -26 0 
-16 -21 -31 0 
-16 -21 -36 0 
-16 -21 -41 0 
-16 -21 -46 0 
-16 -26 -1 0 
-16 -26 -6 0 
-16 -26 -11 0 
-16 -26 -21 0 
-16 -26 -31 0 
-16 -26 -36 0 
-16 -26 -41 0 
-16 -26 -46 0 
-16 -31 -1 0 
-16 -31 -6 0 
-16 -31 -11 0 
-16 -31 -21 0 
-16 -31 -26 0 
-16 -31 -36 0 
-16 -31 -41 0 
-16 -31 -46 0 
-16 -36 -1 0 
-16 -36 -6 0 
-16 -36 -11 0 
-16 -36 -21 0 
-16 -36 -26 0 
-16 -36 -31 0 
-16 -36 -41 0 
-16 -36 -46 0 
-16 -41 -1 0 
-16 -41 -6 0 
-16 -41 -11 0 
-16 -41 -21 0 
-16 -41 -26 0 
-16 -41 -31 0 
-16 -41 -36 0 
-16 -41 -46 0 
-16 -46 -1 0 
-16 -46 -6 0 
-16 -46 -11 0 
-16 -46 -21 0 
-16 -46 -26 0 
-16 -46 -31 0 
-16 -46 -36 0 
-16 -46 -41 0 
-21 -26 -1 0 
-21 -26 -6 0 
-21 -26 -11 0 
-21 -26 -16 0 
-21 -26 -31 0 
-21 -26 -36 0 
-21 -26 -41 0 
-21 -26 -46 0 
-21 -31 -1 0 
-21 -31 -6 0 
-21 -31 -11 0 
-21 -31 -16 0 
-21 -31 -26 0 
-21 -31 -36 0 
-21 -31 -41 0 
-21 -31 -46 0 
-21 -36 -1 0 
-21 -36 -6 0 
-21 -36 -11 0 
-21 -36 -16 0 
-21 -36 -26 0 
-21 -36 -31 0 
-21 -36 -41 0 
-21 -36 -46 0 
-21 -41 -1 0 
-21 -41 -6 0 
-21 -41 -11 0 
-21 -41 -16 0 
-21 -41 -26 0 
-21 -41 -31 0 
-21 -41 -36 0 
-21 -41 -46 0 
-21 -46 -1 0 
-21 -46 -6 0 
-21 -46 -11 0 
-21 -46 -16 0 
-21 -46 -26 0 
-21 -46 -31 0 
-21 -46 -36 0 
-21 -46 -41 0 
-26 -31 -1 0 
-26 -31 -6 0 
-26 -31 -11 0 
-26 -31 -16 0 
-26 -31 -21 0 
-26 -31 -36 0 
-26 -31 -41 0 
-26 -31 -46 0 
-26 -36 -1 0 
-26 -36 -6 0 
-26 -36 -11 0 
-26 -36 -16 0 
-26 -36 -21 0 
-26 -36 -31 0 
-26 -36 -41 0 
-26 -36 -46 0 
-26 -41 -1 0 
-26 -41 -6 0 
-26 -41 -11 0 
-26 -41 -16 0 
-26 -41 -21 0 
-26 -41 -31 0 
-26 -41 -36 0 
-26 -41 -46 0 
-26 -46 -1 0 
-26 -46 -6 0 
-26 -46 -11 0 
-26 -46 -16 0 
-26 -46 -21 0 
-26 -46 -31 0 
-26 -46 -36 0 
-26 -46 -41 0 
-31 -36 -1 0 
-31 -36 -6 0 
-31 -36 -11 0 
-31 -36 -16 0 
-31 -36 -21 0 
-31 -36 -26 0 
-31 -36 -41 0 
-31 -36 -46 0 
-31 -41 -1 0 
-31 -41 -6 0 
-31 -41 -11 0 
-31 -41 -16 0 
-31 -41 -21 0 
-31 -41 -26 0 
-31 -41 -36 0 
-31 -41 -46 0 
-31 -46 -1 0 
-31 -46 -6 0 
-31 -46 -11 0 
-31 -46 -16 0 
-31 -46 -21 0 
-31 -46 -26 0 
-31 -46 -36 0 
-31 -46 -41 0 
-36 -41 -1 0 
-36 -41 -6 0 
-36 -41 -11 0 
-36 -41 -16 0 
-36 -41 -21 0 
-36 -41 -26 0 
-36 -41 -31 0 
-36 -41 -46 0 
-36 -46 -1 0 
-36 -46 -6 0 
-36 -46 -11 0 
-36 -46 -16 0 
-36 -46 -21 0 
-36 -46 -26 0 
-36 -46 -31 0 
-36 -46 -41 0 
-41 -46 -1 0 
-41 -46 -6 0 
-41 -46 -11 0 
-41 -46 -16 0 
-41 -46 -21 0 
-41 -46 -26 0 
-41 -46 -31 0 
-41 -46 -36 0 
6 11 16 21 26 31 36 41 46 0 
1 11 16 21 26 31 36 41 46 0 
1 6 16 21 26 31 36 41 46 0 
1 6 11 21 26 31 36 41 46 0 
1 6 11 16 26 31 36 41 46 0 
1 6 11 16 21 31 36 41 46 0 
1 6 11 16 21 26 36 41 46 0 
1 6 11 16 21 26 31 41 46 0 
1 6 11 16 21 26 31 36 46 0 
1 6 11 16 21 26 31 36 41 0 
-2 -7 -12 0 
-2 -7 -17 0 
-2 -7 -22 0 
-2 -7 -27 0 
-2 -7 -32 0 
-2 -7 -37 0 
-2 -7 -42 0 
-2 -7 -47 0 
-2 -12 -7 0 
-2 -12 -17 0 
-2 -12 -22 0 
-2 -12 -27 0 
-2 -12 -32 0 
-2 -12 -37 0 
-2 -12 -42 0 
-2 -12 -47 0 
-2 -17 -7 0 
-2 -17 -12 0 
-2 -17 -22 0 
-2 -17 -27 0 
-2 -17 -32 0 
-2 -17 -37 0 
-2 -17 -42 0 
-2 -17 -47 0 
-2 -22 -7 0 
-2 -22 -12 0 
-2 -22 -17 0 
-2 -22 -27 0 
-2 -22 -32 0 
-2 -22 -37 0 
-2 -22 -42 0 
-2 -22 -47 0 
-2 -27 -7 0 
-2 -27 -12 0 
-2 -27 -17 0 
-2 -27 -22 0 
-2 -27 -32 0 
-2 -27 -37 0 
-2 -27 -42 0 
-2 -27 -47 0 
-2 -32 -7 0 
-2 -32 -12 0 
-2 -32 -17 0 
-2 -32 -22 0 
-2 -32 -27 0 
-2 -32 -37 0 
-2 -32 -42 0 
-2 -32 -47 0 
-2 -37 -7 0 
-2 -37 -12 0 
-2 -37 -17 0 
-2 -37 -22 0 
-2 -37 -27 0 
-2 -37 -32 0 
-2 -37 -42 0 
-2 -37 -47 0 
-2 -42 -7 0 
-2 -42 -12 0 
-2 -42 -17 0 
-2 -42 -22 0 
-2 -42 -27 0 
-2 -42 -32 0 
-2 -42 -37 0 
-2 -42 -47 0 
-2 -47 -7 0 
-2 -47 -12 0 
-2 -47 -17 0 
-2 -47 -22 0 
-2 -47 -27 0 
-2 -47 -32 0 
-2 -47 -37 0 
-2 -47 -42 0 
-7 -12 -2 0 
-7 -12 -17 0 
-7 -12 -22 0 
-7 -12 -27 0 
-7 -12 -32 0 
-7 -12 -37 0 
-7 -12 -42 0 
-7 -12 -47 0 
-7 -17 -2 0 
-7 -17 -12 0 
-7 -17 -22 0 
-7 -17 -27 0 
-7 -17 -32 0 
-7 -17 -37 0 
-7 -17 -42 0 
-7 -17 -47 0 
-7 -22 -2 0 
-7 -22 -12 0 
-7 -22 -17 0 
-7 -22 -27 0 
-7 -22 -32 0 
-7 -22 -37 0 
-7 -22 -42 0 
-7 -22 -47 0 
-7 -27 -2 0 
-7 -27 -12 0 
-7 -27 -17 0 
-7 -27 -22 0 
-7 -27 -32 0 
-7 -27 -37 0 
-7 -27 -42 0 
-7 -27 -47 0 
-7 -32 -2 0 
-7 -32 -12 0 
-7 -32 -17 0 
-7 -32 -22 0 
-7 -32 -27 0 
-7 -32 -37 0 
-7 -32 -42 0 
-7 -32 -47 0 
-7 -37 -2 0 
-7 -37 -12 0 
-7 -37 -17 0 
-7 -37 -22 0 
-7 -37 -27 0 
-7 -37 -32 0 
-7 -37 -42 0 
-7 -37 -47 0 
-7 -42 -2 0 
-7 -42 -12 0 
-7 -42 -17 0 
-7 -42 -22 0 
-7 -42 -27 0 
-7 -42 -32 0 
-7 -42 -37 0 
-7 -42 -47 0 
-7 -47 -2 0 
-7 -47 -12 0 
-7 -47 -17 0 
-7 -47 -22 0 
-7 -47 -27 0 
-7 -47 -32 0 
-7 -47 -37 0 
-7 -47 -42 0 
-12 -17 -2 0 
-12 -17 -7 0 
-12 -17 -22 0 
-12 -17 -27 0 
-12 -17 -32 0 
-12 -17 -37 0 
-12 -17 -42 0 
-12 -17 -47 0 
-12 -22 -2 0 
-12 -22 -7 0 
-12 -22 -17 0 
-12 -22 -27 0 
-12 -22 -32 0 
-12 -22 -37 0 
-12 -22 -42 0 
-12 -22 -47 0 
-12 -27 -2 0 
-12 -27 -7 0 
-12 -27 -17 0 
-12 -27 -22 0 
-12 -27 -32 0 
-12 -27 -37 0 
-12 -27 -42 0 
-12 -27 -47 0 
-12 -32 -2 0 
-12 -32 -7 0 
-12 -32 -17 0 
-12 -32 -22 0 
-12 -32 -27 0 
-12 -32 -37 0 
-12 -32 -42 0 
-12 -32 -47 0 
-12 -37 -2 0 
-12 -37 -7 0 
-12 -37 -17 0 
-12 -37 -22 0 
-12 -37 -27 0 
-12 -37 -32 0 
-12 -37 -42 0 
-12 -37 -47 0 
-12 -42 -2 0 
-12 -42 -7 0 
-12 -42 -17 0 
-12 -42 -22 0 
-12 -42 -27 0 
-12 -42 -32 0 
-12 -42 -37 0 
-12 -42 -47 0 
-12 -47 -2 0 
-12 -47 -7 0 
-12 -47 -17 0 
-12 -47 -22 0 
-12 -47 -27 0 
-12 -47 -32 0 
-12 -47 -37 0 
-12 -47 -42 0 
-17 -22 -2 0 
-17 -22 -7 0 
-17 -22 -12 0 
-17 -22 -27 0 
-17 -22 -32 0 
-17 -22 -37 0 
-17 -22 -42 0 
-17 -22 -47 0 
-17 -27 -2 0 
-17 -27 -7 0 
-17 -27 -12 0 
-17 -27 -22 0 
-17 -27 -32 0 
-17 -27 -37 0 
-17 -27 -42 0 
-17 -27 -47 0 
-17 -32 -2 0 
-17 -32 -7 0 
-17 -32 -12 0 
-17 -32 -22 0 
-17 -32 -27 0 
-17 -32 -37 0 
-17 -32 -42 0 
-17 -32 -47 0 
-17 -37 -2 0 
-17 -37 -7 0 
-17 -37 -12 0 
-17 -37 -22 0 
-17 -37 -27 0 
-17 -37 -32 0 
-17 -37 -42 0 
-17 -37 -47 0 
-17 -42 -2 0 
-17 -42 -7 0 
-17 -42 -12 0 
-17 -42 -22 0 
-17 -42 -27 0 
-17 -42 -32 0 
-17 -42 -37 0 
-17 -42 -47 0 
-17 -47 -2 0 
-17 -47 -7 0 
-17 -47 -12 0 
-17 -47 -22 0 
-17 -47 -27 0 
-17 -47 -32 0 
-17 -47 -37 0 
-17 -47 -42 0 
-22 -27 -2 0 
-22 -27 -7 0 
-22 -27 -12 0 
-22 -27 -17 0 
-22 -27 -32 0 
-22 -27 -37 0 
-22 -27 -42 0 
-22 -27 -47 0 
-22 -32 -2 0 
-22 -32 -7 0 
-22 -32 -12 0 
-22 -32 -17 0 
-22 -32 -27 0 
-22 -32 -37 0 
-22 -32 -42 0 
-22 -32 -47 0 
-22 -37 -2 0 
-22 -37 -7 0 
-22 -37 -12 0 
-22 -37 -17 0 
-22 -37 -27 0 
-22 -37 -32 0 
-22 -37 -42 0 
-22 -37 -47 0 
-22 -42 -2 0 
-22 -42 -7 0 
-22 -42 -12 0 
-22 -42 -17 0 
-22 -42 -27 0 
-22 -42 -32 0 
-22 -42 -37 0 
-22 -42 -47 0 
-22 -47 -2 0 
-22 -47 -7 0 
-22 -47 -12 0 
-22 -47 -17 0 
-22 -47 -27 0 
-22 -47 -32 0 
-22 -47 -37 0 
-22 -47 -42 0 
-27 -32 -2 0 
-27 -32 -7 0 
-27 -32 -12 0 
-27 -32 -17 0 
-27 -32 -22 0 
-27 -32 -37 0 
-27 -32 -42 0 
-27 -32 -47 0 
-27 -37 -2 0 
-27 -37 -7 0 
-27 -37 -12 0 
-27 -37 -17 0 
-27 -37 -22 0 
-27 -37 -32 0 
-27 -37 -42 0 
-27 -37 -47 0 
-27 -42 -2 0 
-27 -42 -7 0 
-27 -42 -12 0 
-27 -42 -17 0 
-27 -42 -22 0 
-27 -42 -32 0 
-27 -42 -37 0 
-27 -42 -47 0 
-27 -47 -2 0 
-27 -47 -7 0 
-27 -47 -12 0 
-27 -47 -17 0 
-27 -47 -22 0 
-27 -47 -32 0 
-27 -47 -37 0 
-27 -47 -42 0 
-32 -37 -2 0 
-32 -37 -7 0 
-32 -37 -12 0 
-32 -37 -17 0 
-32 -37 -22 0 
-32 -37 -27 0 
-32 -37 -42 0 
-32 -37 -47 0 
-32 -42 -2 0 
-32 -42 -7 0 
-32 -42 -12 0 
-32 -42 -17 0 
-32 -42 -22 0 
-32 -42 -27 0 
-32 -42 -37 0 
-32 -42 -47 0 
-32 -47 -2 0 
-32 -47 -7 0 
-32 -47 -12 0 
-32 -47 -17 0 
-32 -47 -22 0 
-32 -47 -27 0 
-32 -47 -37 0 
-32 -47 -42 0 
-37 -42 -2 0 
-37 -42 -7 0 
-37 -42 -12 0 
-37 -42 -17 0 
-37 -42 -22 0 
-37 -42 -27 0 
-37 -42 -32 0 
-37 -42 -47 0 
-37 -47 -2 0 
-37 -47 -7 0 
-37 -47 -12 0 
-37 -47 -17 0 
-37 -47 -22 0 
-37 -47 -27 0 
-37 -47 -32 0 
-37 -47 -42 0 
-42 -47 -2 0 
-42 -47 -7 0 
-42 -47 -12 0 
-42 -47 -17 0 
-42 -47 -22 0 
-42 -47 -27 0 
-42 -47 -32 0 
-42 -47 -37 0 
7 12 17 22 27 32 37 42 47 0 
2 12 17 22 27 32 37 42 47 0 
2 7 17 22 27 32 37 42 47 0 
2 7 12 22 27 32 37 42 47 0 
2 7 12 17 27 32 37 42 47 0 
2 7 12 17 22 32 37 42 47 0 
2 7 12 17 22 27 37 42 47 0 
2 7 12 17 22 27 32 42 47 0 
2 7 12 17 22 27 32 37 47 0 
2 7 12 17 22 27 32 37 42 0 
-3 -8 -13 0 
-3 -8 -18 0 
-3 -8 -23 0 
-3 -8 -28 0 
-3 -8 -33 0 
-3 -8 -38 0 
-3 -8 -43 0 
-3 -8 -48 0 
-3 -13 -8 0 
-3 -13 -18 0 
-3 -13 -23 0 
-3 -13 -28 0 
-3 -13 -33 0 
-3 -13 -38 0 
-3 -13 -43 0 
-3 -13 -48 0 
-3 -18 -8 0 
-3 -18 -13 0 
-3 -18 -23 0 
-3 -18 -28 0 
-3 -18 -33 0 
-3 -18 -38 0 
-3 -18 -43 0 
-3 -18 -48 0 
-3 -23 -8 0 
-3 -23 -13 0 
-3 -23 -18 0 
-3 -23 -28 0 
-3 -23 -33 0 
-3 -23 -38 0 
-3 -23 -43 0 
-3 -23 -48 0 
-3 -28 -8 0 
-3 -28 -13 0 
-3 -28 -18 0 
-3 -28 -23 0 
-3 -28 -33 0 
-3 -28 -38 0 
-3 -28 -43 0 
-3 -28 -48 0 
-3 -33 -8 0 
-3 -33 -13 0 
-3 -33 -18 0 
-3 -33 -23 0 
-3 -33 -28 0 
-3 -33 -38 0 
-3 -33 -43 0 
-3 -33 -48 0 
-3 -38 -8 0 
-3 -38 -13 0 
-3 -38 -18 0 
-3 -38 -23 0 
-3 -38 -28 0 
-3 -38 -33 0 
-3 -38 -43 0 
-3 -38 -48 0 
-3 -43 -8 0 
-3 -43 -13 0 
-3 -43 -18 0 
-3 -43 -23 0 
-3 -43 -28 0 
-3 -43 -33 0 
-3 -43 -38 0 
-3 -43 -48 0 
-3 -48 -8 0 
-3 -48 -13 0 
-3 -48 -18 0 
-3 -48 -23 0 
-3 -48 -28 0 
-3 -48 -33 0 
-3 -48 -38 0 
-3 -48 -43 0 
-8 -13 -3 0 
-8 -13 -18 0 
-8 -13 -23 0 
-8 -13 -28 0 
-8 -13 -33 0 
-8 -13 -38 0 
-8 -13 -43 0 
-8 -13 -48 0 
-8 -18 -3 0 
-8 -18 -13 0 
-8 -18 -23 0 
-8 -18 -28 0 
-8 -18 -33 0 
-8 -18 -38 0 
-8 -18 -43 0 
-8 -18 -48 0 
-8 -23 -3 0 
-8 -23 -13 0 
-8 -23 -18 0 
-8 -23 -28 0 
-8 -23 -33 0 
-8 -23 -38 0 
-8 -23 -43 0 
-8 -23 -48 0 
-8 -28 -3 0 
-8 -28 -13 0 
-8 -28 -18 0 
-8 -28 -23 0 
-8 -28 -33 0 
-8 -28 -38 0 
-8 -28 -43 0 
-8 -28 -48 0 
-8 -33 -3 0 
-8 -33 -13 0 
-8 -33 -18 0 
-8 -33 -23 0 
-8 -33 -28 0 
-8 -33 -38 0 
-8 -33 -43 0 
-8 -33 -48 0 
-8 -38 -3 0 
-8 -38 -13 0 
-8 -38 -18 0 
-8 -38 -23 0 
-8 -38 -28 0 
-8 -38 -33 0 
-8 -38 -43 0 
-8 -38 -48 0 
-8 -43 -3 0 
-8 -43 -13 0 
-8 -43 -18 0 
-8 -43 -23 0 
-8 -43 -28 0 
-8 -43 -33 0 
-8 -43 -38 0 
-8 -43 -48 0 
-8 -48 -3 0 
-8 -48 -13 0 
-8 -48 -18 0 
-8 -48 -23 0 
-8 -48 -28 0 
-8 -48 -33 0 
-8 -48 -38 0 
-8 -48 -43 0 
-13 -18 -3 0 
-13 -18 -8 0 
-13 -18 -23 0 
-13 -18 -28 0 
-13 -18 -33 0 
-13 -18 -38 0 
-13 -18 -43 0 
-13 -18 -48 0 
-13 -23 -3 0 
-13 -23 -8 0 
-13 -23 -18 0 
-13 -23 -28 0 
-13 -23 -33 0 
-13 -23 -38 0 
-13 -23 -43 0 
-13 -23 -48 0 
-13 -28 -3 0 
-13 -28 -8 0 
-13 -28 -18 0 
-13 -28 -23 0 
-13 -28 -33 0 
-13 -28 -38 0 
-13 -28 -43 0 
-13 -28 -48 0 
-13 -33 -3 0 
-13 -33 -8 0 
-13 -33 -18 0 
-13 -33 -23 0 
-13 -33 -28 0 
-13 -33 -38 0 
-13 -33 -43 0 
-13 -33 -48 0 
-13 -38 -3 0 
-13 -38 -8 0 
-13 -38 -18 0 
-13 -38 -23 0 
-13 -38 -28 0 
-13 -38 -33 0 
-13 -38 -43 0 
-13 -38 -48 0 
-13 -43 -3 0 
-13 -43 -8 0 
-13 -43 -18 0 
-13 -43 -23 0 
-13 -43 -28 0 
-13 -43 -33 0 
-13 -43 -38 0 
-13 -43 -48 0 
-13 -48 -3 0 
-13 -48 -8 0 
-13 -48 -18 0 
-13 -48 -23 0 
-13 -48 -28 0 
-13 -48 -33 0 
-13 -48 -38 0 
-13 -48 -43 0 
-18 -23 -3 0 
-18 -23 -8 0 
-18 -23 -13 0 
-18 -23 -28 0 
-18 -23 -33 0 
-18 -23 -38 0 
-18 -23 -43 0 
-18 -23 -48 0 
-18 -28 -3 0 
-18 -28 -8 0 
-18 -28 -13 0 
-18 -28 -23 0 
-18 -28 -33 0 
-18 -28 -38 0 
-18 -28 -43 0 
-18 -28 -48 0 
-18 -33 -3 0 
-18 -33 -8 0 
-18 -33 -13 0 
-18 -33 -23 0 
-18 -33 -28 0 
-18 -33 -38 0 
-18 -33 -43 0 
-18 -33 -48 0 
-18 -38 -3 0 
-18 -38 -8 0 
-18 -38 -13 0 
-18 -38 -23 0 
-18 -38 -28 0 
-18 -38 -33 0 
-18 -38 -43 0 
-18 -38 -48 0 
-18 -43 -3 0 
-18 -43 -8 0 
-18 -43 -13 0 
-18 -43 -23 0 
-18 -43 -28 0 
-18 -43 -33 0 
-18 -43 -38 0 
-18 -43 -48 0 
-18 -48 -3 0 
-18 -48 -8 0 
-18 -48 -13 0 
-18 -48 -23 0 
-18 -48 -28 0 
-18 -48 -33 0 
-18 -48 -38 0 
-18 -48 -43 0 
-23 -28 -3 0 
-23 -28 -8 0 
-23 -28 -13 0 
-23 -28 -18 0 
-23 -28 -33 0 
-23 -28 -38 0 
-23 -28 -43 0 
-23 -28 -48 0 
-23 -33 -3 0 
-23 -33 -8 0 
-23 -33 -13 0 
-23 -33 -18 0 
-23 -33 -28 0 
-23 -33 -38 0 
-23 -33 -43 0 
-23 -33 -48 0 
-23 -38 -3 0 
-23 -38 -8 0 
-23 -38 -13 0 
-23 -38 -18 0 
-23 -38 -28 0 
-23 -38 -33 0 
-23 -38 -43 0 
-23 -38 -48 0 
-23 -43 -3 0 
-23 -43 -8 0 
-23 -43 -13 0 
-23 -43 -18 0 
-23 -43 -28 0 
-23 -43 -33 0 
-23 -43 -38 0 
-23 -43 -48 0 
-23 -48 -3 0 
-23 -48 -8 0 
-23 -48 -13 0 
-23 -48 -18 0 
-23 -48 -28 0 
-23 -48 -33 0 
-23 -48 -38 0 
-23 -48 -43 0 
-28 -33 -3 0 
-28 -33 -8 0 
-28 -33 -13 0 
-28 -33 -18 0 
-28 -33 -23 0 
-28 -33 -38 0 
-28 -33 -43 0 
-28 -33 -48 0 
-28 -38 -3 0 
-28 -38 -8 0 
-28 -38 -13 0 
-28 -38 -18 0 
-28 -38 -23 0 
-28 -38 -33 0 
-28 -38 -43 0 
-28 -38 -48 0 
-28 -43 -3 0 
-28 -43 -8 0 
-28 -43 -13 0 
-28 -43 -18 0 
-28 -43 -23 0 
-28 -43 -33 0 
-28 -43 -38 0 
-28 -43 -48 0 
-28 -48 -3 0 
-28 -48 -8 0 
-28 -48 -13 0 
-28 -48 -18 0 
-28 -48 -23 0 
-28 -48 -33 0 
-28 -48 -38 0 
-28 -48 -43 0 
-33 -38 -3 0 
-33 -38 -8 0 
-33 -38 -13 0 
-33 -38 -18 0 
-33 -38 -23 0 
-33 -38 -28 0 
-33 -38 -43 0 
-33 -38 -48 0 
-33 -43 -3 0 
-33 -43 -8 0 
-33 -43 -13 0 
-33 -43 -18 0 
-33 -43 -23 0 
-33 -43 -28 0 
-33 -43 -38 0 
-33 -43 -48 0 
-33 -48 -3 0 
-33 -48 -8 0 
-33 -48 -13 0 
-33 -48 -18 0 
-33 -48 -23 0 
-33 -48 -28 0 
-33 -48 -38 0 
-33 -48 -43 0 
-38 -43 -3 0 
-38 -43 -8 0 
-38 -43 -13 0 
-38 -43 -18 0 
-38 -43 -23 0 
-38 -43 -28 0 
-38 -43 -33 0 
-38 -43 -48 0 
-38 -48 -3 0 
-38 -48 -8 0 
-38 -48 -13 0 
-38 -48 -18 0 
-38 -48 -23 0 
-38 -48 -28 0 
-38 -48 -33 0 
-38 -48 -43 0 
-43 -48 -3 0 
-43 -48 -8 0 
-43 -48 -13 0 
-43 -48 -18 0 
-43 -48 -23 0 
-43 -48 -28 0 
-43 -48 -33 0 
-43 -48 -38 0 
8 13 18 23 28 33 38 43 48 0 
3 13 18 23 28 33 38 43 48 0 
3 8 18 23 28 33 38 43 48 0 
3 8 13 23 28 33 38 43 48 0 
3 8 13 18 28 33 38 43 48 0 
3 8 13 18 23 33 38 43 48 0 
3 8 13 18 23 28 38 43 48 0 
3 8 13 18 23 28 33 43 48 0 
3 8 13 18 23 28 33 38 48 0 
3 8 13 18 23 28 33 38 43 0 
-4 -9 -14 0 
-4 -9 -19 0 
-4 -9 -24 0 
-4 -9 -29 0 
-4 -9 -34 0 
-4 -9 -39 0 
-4 -9 -44 0 
-4 -9 -49 0 
-4 -14 -9 0 
-4 -14 -19 0 
-4 -14 -24 0 
-4 -14 -29 0 
-4 -14 -34 0 
-4 -14 -39 0 
-4 -14 -44 0 
-4 -14 -49 0 
-4 -19 -9 0 
-4 -19 -14 0 
-4 -19 -24 0 
-4 -19 -29 0 
-4 -19 -34 0 
-4 -19 -39 0 
-4 -19 -44 0 
-4 -19 -49 0 
-4 -24 -9 0 
-4 -24 -14 0 
-4 -24 -19 0 
-4 -24 -29 0 
-4 -24 -34 0 
-4 -24 -39 0 
-4 -24 -44 0 
-4 -24 -49 0 
-4 -29 -9 0 
-4 -29 -14 0 
-4 -29 -19 0 
-4 -29 -24 0 
-4 -29 -34 0 
-4 -29 -39 0 
-4 -29 -44 0 
-4 -29 -49 0 
-4 -34 -9 0 
-4 -34 -14 0 
-4 -34 -19 0 
-4 -34 -24 0 
-4 -34 -29 0 
-4 -34 -39 0 
-4 -34 -44 0 
-4 -34 -49 0 
-4 -39 -9 0 
-4 -39 -14 0 
-4 -39 -19 0 
-4 -39 -24 0 
-4 -39 -29 0 
-4 -39 -34 0 
-4 -39 -44 0 
-4 -39 -49 0 
-4 -44 -9 0 
-4 -44 -14 0 
-4 -44 -19 0 
-4 -44 -24 0 
-4 -44 -29 0 
-4 -44 -34 0 
-4 -44 -39 0 
-4 -44 -49 0 
-4 -49 -9 0 
-4 -49 -14 0 
-4 -49 -19 0 
-4 -49 -24 0 
-4 -49 -29 0 
-4 -49 -34 0 
-4 -49 -39 0 
-4 -49 -44 0 
-9 -14 -4 0 
-9 -14 -19 0 
-9 -14 -24 0 
-9 -14 -29 0 
-9 -14 -34 0 
-9 -14 -39 0 
-9 -14 -44 0 
-9 -14 -49 0 
-9 -19 -4 0 
-9 -19 -14 0 
-9 -19 -24 0 
-9 -19 -29 0 
-9 -19 -34 0 
-9 -19 -39 0 
-9 -19 -44 0 
-9 -19 -49 0 
-9 -24 -4 0 
-9 -24 -14 0 
-9 -24 -19 0 
-9 -24 -29 0 
-9 -24 -34 0 
-9 -24 -39 0 
-9 -24 -44 0 
-9 -24 -49 0 
-9 -29 -4 0 
-9 -29 -14 0 
-9 -29 -19 0 
-9 -29 -24 0 
-9 -29 -34 0 
-9 -29 -39 0 
-9 -29 -44 0 
-9 -29 -49 0 
-9 -34 -4 0 
-9 -34 -14 0 
-9 -34 -19 0 
-9 -34 -24 0 
-9 -34 -29 0 
-9 -34 -39 0 
-9 -34 -44 0 
-9 -34 -49 0 
-9 -39 -4 0 
-9 -39 -14 0 
-9 -39 -19 0 
-9 -39 -24 0 
-9 -39 -29 0 
-9 -39 -34 0 
-9 -39 -44 0 
-9 -39 -49 0 
-9 -44 -4 0 
-9 -44 -14 0 
-9 -44 -19 0 
-9 -44 -24 0 
-9 -44 -29 0 
-9 -44 -34 0 
-9 -44 -39 0 
-9 -44 -49 0 
-9 -49 -4 0 
-9 -49 -14 0 
-9 -49 -19 0 
-9 -49 -24 0 
-9 -49 -29 0 
-9 -49 -34 0 
-9 -49 -39 0 
-9 -49 -44 0 
-14 -19 -4 0 
-14 -19 -9 0 
-14 -19 -24 0 
-14 -19 -29 0 
-14 -19 -34 0 
-14 -19 -39 0 
-14 -19 -44 0 
-14 -19 -49 0 
-14 -24 -4 0 
-14 -24 -9 0 
-14 -24 -19 0 
-14 -24 -29 0 
-14 -24 -34 0 
-14 -24 -39 0 
-14 -24 -44 0 
-14 -24 -49 0 
-14 -29 -4 0 
-14 -29 -9 0 
-14 -29 -19 0 
-14 -29 -24 0 
-14 -29 -34 0 
-14 -29 -39 0 
-14 -29 -44 0 
-14 -29 -49 0 
-14 -34 -4 0 
-14 -34 -9 0 
-14 -34 -19 0 
-14 -34 -24 0 
-14 -34 -29 0 
-14 -34 -39 0 
-14 -34 -44 0 
-14 -34 -49 0 
-14 -39 -4 0 
-14 -39 -9 0 
-14 -39 -19 0 
-14 -39 -24 0 
-14 -39 -29 0 
-14 -39 -34 0 
-14 -39 -44 0 
-14 -39 -49 0 
-14 -44 -4 0 
-14 -44 -9 0 
-14 -44 -19 0 
-14 -44 -24 0 
-14 -44 -29 0 
-14 -44 -34 0 
-14 -44 -39 0 
-14 -44 -49 0 
-14 -49 -4 0 
-14 -49 -9 0 
-14 -49 -19 0 
-14 -49 -24 0 
-14 -49 -29 0 
-14 -49 -34 0 
-14 -49 -39 0 
-14 -49 -44 0 
-19 -24 -4 0 
-19 -24 -9 0 
-19 -24 -14 0 
-19 -24 -29 0 
-19 -24 -34 0 
-19 -24 -39 0 
-19 -24 -44 0 
-19 -24 -49 0 
-19 -29 -4 0 
-19 -29 -9 0 
-19 -29 -14 0 
-19 -29 -24 0 
-19 -29 -34 0 
-19 -29 -39 0 
-19 -29 -44 0 
-19 -29 -49 0 
-19 -34 -4 0 
-19 -34 -9 0 
-19 -34 -14 0 
-19 -34 -24 0 
-19 -34 -29 0 
-19 -34 -39 0 
-19 -34 -44 0 
-19 -34 -49 0 
-19 -39 -4 0 
-19 -39 -9 0 
-19 -39 -14 0 
-19 -39 -24 0 
-19 -39 -29 0 
-19 -39 -34 0 
-19 -39 -44 0 
-19 -39 -49 0 
-19 -44 -4 0 
-19 -44 -9 0 
-19 -44 -14 0 
-19 -44 -24 0 
-19 -44 -29 0 
-19 -44 -34 0 
-19 -44 -39 0 
-19 -44 -49 0 
-19 -49 -4 0 
-19 -49 -9 0 
-19 -49 -14 0 
-19 -49 -24 0 
-19 -49 -29 0 
-19 -49 -34 0 
-19 -49 -39 0 
-19 -49 -44 0 
-24 -29 -4 0 
-24 -29 -9 0 
-24 -29 -14 0 
-24 -29 -19 0 
-24 -29 -34 0 
-24 -29 -39 0 
-24 -29 -44 0 
-24 -29 -49 0 
-24 -34 -4 0 
-24 -34 -9 0 
-24 -34 -14 0 
-24 -34 -19 0 
-24 -34 -29 0 
-24 -34 -39 0 
-24 -34 -44 0 
-24 -34 -49 0 
-24 -39 -4 0 
-24 -39 -9 0 
-24 -39 -14 0 
-24 -39 -19 0 
-24 -39 -29 0 
-24 -39 -34 0 
-24 -39 -44 0 
-24 -39 -49 0 
-24 -44 -4 0 
-24 -44 -9 0 
-24 -44 -14 0 
-24 -44 -19 0 
-24 -44 -29 0 
-24 -44 -34 0 
-24 -44 -39 0 
-24 -44 -49 0 
-24 -49 -4 0 
-24 -49 -9 0 
-24 -49 -14 0 
-24 -49 -19 0 
-24 -49 -29 0 
-24 -49 -34 0 
-24 -49 -39 0 
-24 -49 -44 0 
-29 -34 -4 0 
-29 -34 -9 0 
-29 -34 -14 0 
-29 -34 -19 0 
-29 -34 -24 0 
-29 -34 -39 0 
-29 -34 -44 0 
-29 -34 -49 0 
-29 -39 -4 0 
-29 -39 -9 0 
-29 -39 -14 0 
-29 -39 -19 0 
-29 -39 -24 0 
-29 -39 -34 0 
-29 -39 -44 0 
-29 -39 -49 0 
-29 -44 -4 0 
-29 -44 -9 0 
-29 -44 -14 0 
-29 -44 -19 0 
-29 -44 -24 0 
-29 -44 -34 0 
-29 -44 -39 0 
-29 -44 -49 0 
-29 -49 -4 0 
-29 -49 -9 0 
-29 -49 -14 0 
-29 -49 -19 0 
-29 -49 -24 0 
-29 -49 -34 0 
-29 -49 -39 0 
-29 -49 -44 0 
-34 -39 -4 0 
-34 -39 -9 0 
-34 -39 -14 0 
-34 -39 -19 0 
-34 -39 -24 0 
-34 -39 -29 0 
-34 -39 -44 0 
-34 -39 -49 0 
-34 -44 -4 0 
-34 -44 -9 0 
-34 -44 -14 0 
-34 -44 -19 0 
-34 -44 -24 0 
-34 -44 -29 0 
-34 -44 -39 0 
-34 -44 -49 0 
-34 -49 -4 0 
-34 -49 -9 0 
-34 -49 -14 0 
-34 -49 -19 0 
-34 -49 -24 0 
-34 -49 -29 0 
-34 -49 -39 0 
-34 -49 -44 0 
-39 -44 -4 0 
-39 -44 -9 0 
-39 -44 -14 0 
-39 -44 -19 0 
-39 -44 -24 0 
-39 -44 -29 0 
-39 -44 -34 0 
-39 -44 -49 0 
-39 -49 -4 0 
-39 -49 -9 0 
-39 -49 -14 0 
-39 -49 -19 0 
-39 -49 -24 0 
-39 -49 -29 0 
-39 -49 -34 0 
-39 -49 -44 0 
-44 -49 -4 0 
-44 -49 -9 0 
-44 -49 -14 0 
-44 -49 -19 0 
-44 -49 -24 0 
-44 -49 -29 0 
-44 -49 -34 0 
-44 -49 -39 0 
9 14 19 24 29 34 39 44 49 0 
4 14 19 24 29 34 39 44 49 0 
4 9 19 24 29 34 39 44 49 0 
4 9 14 24 29 34 39 44 49 0 
4 9 14 19 29 34 39 44 49 0 
4 9 14 19 24 34 39 44 49 0 
4 9 14 19 24 29 39 44 49 0 
4 9 14 19 24 29 34 44 49 0 
4 9 14 19 24 29 34 39 49 0 
4 9 14 19 24 29 34 39 44 0 
-5 -10 -15 0 
-5 -10 -20 0 
-5 -10 -25 0 
-5 -10 -30 0 
-5 -10 -35 0 
-5 -10 -40 0 
-5 -10 -45 0 
-5 -10 -50 0 
-5 -15 -10 0 
-5 -15 -20 0 
-5 -15 -25 0 
-5 -15 -30 0 
-5 -15 -35 0 
-5 -15 -40 0 
-5 -15 -45 0 
-5 -15 -50 0 
-5 -20 -10 0 
-5 -20 -15 0 
-5 -20 -25 0 
-5 -20 -30 0 
-5 -20 -35 0 
-5 -20 -40 0 
-5 -20 -45 0 
-5 -20 -50 0 
-5 -25 -10 0 
-5 -25 -15 0 
-5 -25 -20 0 
-5 -25 -30 0 
-5 -25 -35 0 
-5 -25 -40 0 
-5 -25 -45 0 
-5 -25 -50 0 
-5 -30 -10 0 
-5 -30 -15 0 
-5 -30 -20 0 
-5 -30 -25 0 
-5 -30 -35 0 
-5 -30 -40 0 
-5 -30 -45 0 
-5 -30 -50 0 
-5 -35 -10 0 
-5 -35 -15 0 
-5 -35 -20 0 
-5 -35 -25 0 
-5 -35 -30 0 
-5 -35 -40 0 
-5 -35 -45 0 
-5 -35 -50 0 
-5 -40 -10 0 
-5 -40 -15 0 
-5 -40 -20 0 
-5 -40 -25 0 
-5 -40 -30 0 
-5 -40 -35 0 
-5 -40 -45 0 
-5 -40 -50 0 
-5 -45 -10 0 
-5 -45 -15 0 
-5 -45 -20 0 
-5 -45 -25 0 
-5 -45 -30 0 
-5 -45 -35 0 
-5 -45 -40 0 
-5 -45 -50 0 
-5 -50 -10 0 
-5 -50 -15 0 
-5 -50 -20 0 
-5 -50 -25 0 
-5 -50 -30 0 
-5 -50 -35 0 
-5 -50 -40 0 
-5 -50 -45 0 
-10 -15 -5 0 
-10 -15 -20 0 
-10 -15 -25 0 
-10 -15 -30 0 
-10 -15 -35 0 
-10 -15 -40 0 
-10 -15 -45 0 
-10 -15 -50 0 
-10 -20 -5 0 
-10 -20 -15 0 
-10 -20 -25 0 
-10 -20 -30 0 
-10 -20 -35 0 
-10 -20 -40 0 
-10 -20 -45 0 
-10 -20 -50 0 
-10 -25 -5 0 
-10 -25 -15 0 
-10 -25 -20 0 
-10 -25 -30 0 
-10 -25 -35 0 
-10 -25 -40 0 
-10 -25 -45 0 
-10 -25 -50 0 
-10 -30 -5 0 
-10 -30 -15 0 
-10 -30 -20 0 
-10 -30 -25 0 
-10 -30 -35 0 
-10 -30 -40 0 
-10 -30 -45 0 
-10 -30 -50 0 
-10 -35 -5 0 
-10 -35 -15 0 
-10 -35 -20 0 
-10 -35 -25 0 
-10 -35 -30 0 
-10 -35 -40 0 
-10 -35 -45 0 
-10 -35 -50 0 
-10 -40 -5 0 
-10 -40 -15 0 
-10 -40 -20 0 
-10 -40 -25 0 
-10 -40 -30 0 
-10 -40 -35 0 
-10 -40 -45 0 
-10 -40 -50 0 
-10 -45 -5 0 
-10 -45 -15 0 
-10 -45 -20 0 
-10 -45 -25 0 
-10 -45 -30 0 
-10 -45 -35 0 
-10 -45 -40 0 
-10 -45 -50 0 
-10 -50 -5 0 
-10 -50 -15 0 
-10 -50 -20 0 
-10 -50 -25 0 
-10 -50 -30 0 
-10 -50 -35 0 
-10 -50 -40 0 
-10 -50 -45 0 
-15 -20 -5 0 
-15 -20 -10 0 
-15 -20 -25 0 
-15 -20 -30 0 
-15 -20 -35 0 
-15 -20 -40 0 
-15 -20 -45 0 
-15 -20 -50 0 
-15 -25 -5 0 
-15 -25 -10 0 
-15 -25 -20 0 
-15 -25 -30 0 
-15 -25 -35 0 
-15 -25 -40 0 
-15 -25 -45 0 
-15 -25 -50 0 
-15 -30 -5 0 
-15 -30 -10 0 
-15 -30 -20 0 
-15 -30 -25 0 
-15 -30 -35 0 
-15 -30 -40 0 
-15 -30 -45 0 
-15 -30 -50 0 
-15 -35 -5 0 
-15 -35 -10 0 
-15 -35 -20 0 
-15 -35 -25 0 
-15 -35 -30 0 
-15 -35 -40 0 
-15 -35 -45 0 
-15 -35 -50 0 
-15 -40 -5 0 
-15 -40 -10 0 
-15 -40 -20 0 
-15 -40 -25 0 
-15 -40 -30 0 
-15 -40 -35 0 
-15 -40 -45 0 
-15 -40 -50 0 
-15 -45 -5 0 
-15 -45 -10 0 
-15 -45 -20 0 
-15 -45 -25 0 
-15 -45 -30 0 
-15 -45 -35 0 
-15 -45 -40 0 
-15 -45 -50 0 
-15 -50 -5 0 
-15 -50 -10 0 
-15 -50 -20 0 
-15 -50 -25 0 
-15 -50 -30 0 
-15 -50 -35 0 
-15 -50 -40 0 
-15 -50 -45 0 
-20 -25 -5 0 
-20 -25 -10 0 
-20 -25 -15 0 
-20 -25 -30 0 
-20 -25 -35 0 
-20 -25 -40 0 
-20 -25 -45 0 
-20 -25 -50 0 
-20 -30 -5 0 
-20 -30 -10 0 
-20 -30 -15 0 
-20 -30 -25 0 
-20 -30 -35 0 
-20 -30 -40 0 
-20 -30 -45 0 
-20 -30 -50 0 
-20 -35 -5 0 
-20 -35 -10 0 
-20 -35 -15 0 
-20 -35 -25 0 
-20 -35 -30 0 
-20 -35 -40 0 
-20 -35 -45 0 
-20 -35 -50 0 
-20 -40 -5 0 
-20 -40 -10 0 
-20 -40 -15 0 
-20 -40 -25 0 
-20 -40 -30 0 
-20 -40 -35 0 
-20 -40 -45 0 
-20 -40 -50 0 
-20 -45 -5 0 
-20 -45 -10 0 
-20 -45 -15 0 
-20 -45 -25 0 
-20 -45 -30 0 
-20 -45 -35 0 
-20 -45 -40 0 
-20 -45 -50 0 
-20 -50 -5 0 
-20 -50 -10 0 
-20 -50 -15 0 
-20 -50 -25 0 
-20 -50 -30 0 
-20 -50 -35 0 
-20 -50 -40 0 
-20 -50 -45 0 
-25 -30 -5 0 
-25 -30 -10 0 
-25 -30 -15 0 
-25 -30 -20 0 
-25 -30 -35 0 
-25 -30 -40 0 
-25 -30 -45 0 
-25 -30 -50 0 
-25 -35 -5 0 
-25 -35 -10 0 
-25 -35 -15 0 
-25 -35 -20 0 
-25 -35 -30 0 
-25 -35 -40 0 
-25 -35 -45 0 
-25 -35 -50 0 
-25 -40 -5 0 
-25 -40 -10 0 
-25 -40 -15 0 
-25 -40 -20 0 
-25 -40 -30 0 
-25 -40 -35 0 
-25 -40 -45 0 
-25 -40 -50 0 
-25 -45 -5 0 
-25 -45 -10 0 
-25 -45 -15 0 
-25 -45 -20 0 
-25 -45 -30 0 
-25 -45 -35 0 
-25 -45 -40 0 
-25 -45 -50 0 
-25 -50 -5 0 
-25 -50 -10 0 
-25 -50 -15 0 
-25 -50 -20 0 
-25 -50 -30 0 
-25 -50 -35 0 
-25 -50 -40 0 
-25 -50 -45 0 
-30 -35 -5 0 
-30 -35 -10 0 
-30 -35 -15 0 
-30 -35 -20 0 
-30 -35 -25 0 
-30 -35 -40 0 
-30 -35 -45 0 
-30 -35 -50 0 
-30 -40 -5 0 
-30 -40 -10 0 
-30 -40 -15 0 
-30 -40 -20 0 
-30 -40 -25 0 
-30 -40 -35 0 
-30 -40 -45 0 
-30 -40 -50 0 
-30 -45 -5 0 
-30 -45 -10 0 
-30 -45 -15 0 
-30 -45 -20 0 
-30 -45 -25 0 
-30 -45 -35 0 
-30 -45 -40 0 
-30 -45 -50 0 
-30 -50 -5 0 
-30 -50 -10 0 
-30 -50 -15 0 
-30 -50 -20 0 
-30 -50 -25 0 
-30 -50 -35 0 
-30 -50 -40 0 
-30 -50 -45 0 
-35 -40 -5 0 
-35 -40 -10 0 
-35 -40 -15 0 
-35 -40 -20 0 
-35 -40 -25 0 
-35 -40 -30 0 
-35 -40 -45 0 
-35 -40 -50 0 
-35 -45 -5 0 
-35 -45 -10 0 
-35 -45 -15 0 
-35 -45 -20 0 
-35 -45 -25 0 
-35 -45 -30 0 
-35 -45 -40 0 
-35 -45 -50 0 
-35 -50 -5 0 
-35 -50 -10 0 
-35 -50 -15 0 
-35 -50 -20 0 
-35 -50 -25 0 
-35 -50 -30 0 
-35 -50 -40 0 
-35 -50 -45 0 
-40 -45 -5 0 
-40 -45 -10 0 
-40 -45 -15 0 
-40 -45 -20 0 
-40 -45 -25 0 
-40 -45 -30 0 
-40 -45 -35 0 
-40 -45 -50 0 
-40 -50 -5 0 
-40 -50 -10 0 
-40 -50 -15 0 
-40 -50 -20 0 
-40 -50 -25 0 
-40 -50 -30 0 
-40 -50 -35 0 
-40 -50 -45 0 
-45 -50 -5 0 
-45 -50 -10 0 
-45 -50 -15 0 
-45 -50 -20 0 
-45 -50 -25 0 
-45 -50 -30 0 
-45 -50 -35 0 
-45 -50 -40 0 
10 15 20 25 30 35 40 45 50 0 
5 15 20 25 30 35 40 45 50 0 
5 10 20 25 30 35 40 45 50 0 
5 10 15 25 30 35 40 45 50 0 
5 10 15 20 30 35 40 45 50 0 
5 10 15 20 25 35 40 45 50 0 
5 10 15 20 25 30 40 45 50 0 
5 10 15 20 25 30 35 45 50 0 
5 10 15 20 25 30 35 40 50 0 
5 10 15 20 25 30 35 40 45 0 
-1 6 0 
-2 12 0 
-3 18 0 
-4 24 0 
-5 30 0 
-6 1 11 0 
-7 17 0 
-8 23 0 
-9 29 0 
-10 35 0 
-11 6 16 0 
-12 2 22 0 
-13 28 0 
-14 34 0 
-15 40 0 
-16 11 21 0 
-17 7 27 0 
-18 3 33 0 
-19 39 0 
-20 45 0 
-21 16 26 0 
-22 12 32 0 
-23 8 38 0 
-24 4 44 0 
-25 50 0 
-26 21 31 0 
-27 17 37 0 
-28 13 43 0 
-29 9 49 0 
-30 5 0 
-31 26 36 0 
-32 22 42 0 
-33 18 48 0 
-34 14 0 
-35 10 0 
-36 31 41 0 
-37 27 47 0 
-38 23 0 
-39 19 0 
-40 15 0 
-41 36 46 0 
-42 32 0 
-43 28 0 
-44 24 0 
-45 20 0 
-46 41 0 
-47 37 0 
-48 33 0 
-49 29 0 
-50 25 0 